Problem:    ring_loading
Rows:       11
Columns:    91 (90 integer, 90 binary)
Non-zeros:  911
Status:     INTEGER OPTIMAL
Objective:  z = 195 (MINimum)

   No.   Row name        Activity     Lower bound   Upper bound
------ ------------    ------------- ------------- -------------
     1 traffico[1]               329           327               
     2 traffico[2]               345           340               
     3 traffico[3]               351           351               
     4 traffico[4]               355           354               
     5 traffico[5]               357           356               
     6 traffico[6]               345           344               
     7 traffico[7]               351           350               
     8 traffico[8]               355           347               
     9 traffico[9]               347           339               
    10 traffico[10]              327           325               
    11 z                         195                             

   No. Column name       Activity     Lower bound   Upper bound
------ ------------    ------------- ------------- -------------
     1 dir[3,2]     *              1             0             1 
     2 dir[4,2]     *              1             0             1 
     3 dir[4,3]     *              1             0             1 
     4 dir[5,2]     *              1             0             1 
     5 dir[5,3]     *              1             0             1 
     6 dir[5,4]     *              1             0             1 
     7 dir[6,2]     *              0             0             1 
     8 dir[6,3]     *              1             0             1 
     9 dir[6,4]     *              1             0             1 
    10 dir[6,5]     *              1             0             1 
    11 dir[7,2]     *              1             0             1 
    12 dir[7,3]     *              1             0             1 
    13 dir[7,4]     *              1             0             1 
    14 dir[7,5]     *              1             0             1 
    15 dir[7,6]     *              1             0             1 
    16 dir[8,2]     *              0             0             1 
    17 dir[8,3]     *              1             0             1 
    18 dir[8,4]     *              1             0             1 
    19 dir[8,5]     *              1             0             1 
    20 dir[8,6]     *              1             0             1 
    21 dir[8,7]     *              1             0             1 
    22 dir[9,2]     *              0             0             1 
    23 dir[9,3]     *              0             0             1 
    24 dir[9,4]     *              0             0             1 
    25 dir[9,5]     *              1             0             1 
    26 dir[9,6]     *              1             0             1 
    27 dir[9,7]     *              1             0             1 
    28 dir[9,8]     *              1             0             1 
    29 dir[10,2]    *              0             0             1 
    30 dir[10,3]    *              0             0             1 
    31 dir[10,4]    *              0             0             1 
    32 dir[10,5]    *              1             0             1 
    33 dir[10,6]    *              1             0             1 
    34 dir[10,7]    *              1             0             1 
    35 dir[10,8]    *              1             0             1 
    36 dir[10,9]    *              1             0             1 
    37 dir[2,3]     *              0             0             1 
    38 dir[2,4]     *              0             0             1 
    39 dir[2,5]     *              0             0             1 
    40 dir[2,6]     *              0             0             1 
    41 dir[2,7]     *              0             0             1 
    42 dir[2,8]     *              1             0             1 
    43 dir[2,9]     *              1             0             1 
    44 dir[2,10]    *              1             0             1 
    45 dir[3,4]     *              0             0             1 
    46 dir[3,5]     *              0             0             1 
    47 dir[3,6]     *              0             0             1 
    48 dir[3,7]     *              0             0             1 
    49 dir[3,8]     *              1             0             1 
    50 dir[3,9]     *              1             0             1 
    51 dir[3,10]    *              1             0             1 
    52 dir[4,5]     *              0             0             1 
    53 dir[4,6]     *              0             0             1 
    54 dir[4,7]     *              0             0             1 
    55 dir[4,8]     *              0             0             1 
    56 dir[4,9]     *              1             0             1 
    57 dir[4,10]    *              1             0             1 
    58 dir[5,6]     *              0             0             1 
    59 dir[5,7]     *              0             0             1 
    60 dir[5,8]     *              0             0             1 
    61 dir[5,9]     *              0             0             1 
    62 dir[5,10]    *              1             0             1 
    63 dir[6,7]     *              0             0             1 
    64 dir[6,8]     *              0             0             1 
    65 dir[6,9]     *              0             0             1 
    66 dir[6,10]    *              0             0             1 
    67 dir[7,8]     *              0             0             1 
    68 dir[7,9]     *              0             0             1 
    69 dir[7,10]    *              0             0             1 
    70 dir[8,9]     *              0             0             1 
    71 dir[8,10]    *              0             0             1 
    72 dir[9,10]    *              0             0             1 
    73 dir[2,1]     *              1             0             1 
    74 dir[3,1]     *              1             0             1 
    75 dir[4,1]     *              0             0             1 
    76 dir[5,1]     *              1             0             1 
    77 dir[6,1]     *              1             0             1 
    78 dir[7,1]     *              0             0             1 
    79 dir[8,1]     *              0             0             1 
    80 dir[9,1]     *              0             0             1 
    81 dir[10,1]    *              0             0             1 
    82 dir[1,2]     *              0             0             1 
    83 dir[1,3]     *              0             0             1 
    84 dir[1,4]     *              0             0             1 
    85 dir[1,5]     *              0             0             1 
    86 dir[1,6]     *              0             0             1 
    87 dir[1,7]     *              1             0             1 
    88 dir[1,8]     *              1             0             1 
    89 dir[1,9]     *              1             0             1 
    90 dir[1,10]    *              1             0             1 
    91 maxt                      195             0               

Integer feasibility conditions:

KKT.PE: max.abs.err = 0.00e+00 on row 0
        max.rel.err = 0.00e+00 on row 0
        High quality

KKT.PB: max.abs.err = 0.00e+00 on row 0
        max.rel.err = 0.00e+00 on row 0
        High quality

End of output
